Minimize
  300 x(1) + 270 x(2) + 460 x(3) + 800 x(4) + 740 x(5) + 600 x(6) + 540 x(7)
   + 380 x(8) + 300 x(9) + 490 x(10) + 380 x(11) + 760 x(12) + 430 x(13)
   + 250 x(14) + 390 x(15) + 600 x(16) + 210 x(17) + 830 x(18) + 470 x(19)
   + 680 x(20) + 360 x(21) + 290 x(22) + 400 x(23) + 310 x(24) + [
   - 14 x(1) ^ 2 - 8 x(2) ^ 2 - 12 x(3) ^ 2 - 16 x(4) ^ 2 - 24 x(5) ^ 2
   - 18 x(6) ^ 2 - 28 x(7) ^ 2 - 14 x(8) ^ 2 - 26 x(9) ^ 2 - 24 x(10) ^ 2
   - 16 x(11) ^ 2 - 8 x(12) ^ 2 - 14 x(13) ^ 2 - 18 x(14) ^ 2
   - 32 x(15) ^ 2 - 16 x(16) ^ 2 - 8 x(17) ^ 2 - 20 x(18) ^ 2
   - 42 x(19) ^ 2 - 26 x(20) ^ 2 - 34 x(21) ^ 2 - 18 x(22) ^ 2
   - 16 x(23) ^ 2 - 8 x(24) ^ 2 ] / 2 
Subject To
 con1: x(4) + x(8) + x(12) + x(16) + x(20) + x(24) = 21
 con2: x(3) + x(7) + x(11) + x(15) + x(19) + x(23) = 13
 con3: x(2) + x(6) + x(10) + x(14) + x(18) + x(22) = 41
 con4: x(1) + x(5) + x(9) + x(13) + x(17) + x(21) = 29
 con5: x(21) + x(22) + x(23) + x(24) = 12
 con6: x(17) + x(18) + x(19) + x(20) = 16
 con7: x(13) + x(14) + x(15) + x(16) = 24
 con8: x(9) + x(10) + x(11) + x(12) = 20
 con9: x(5) + x(6) + x(7) + x(8) = 24
 con10: x(1) + x(2) + x(3) + x(4) = 8
Bounds
 x(1) <= 100
 x(2) <= 100
 x(3) <= 100
 x(4) <= 100
 x(5) <= 100
 x(6) <= 100
 x(7) <= 100
 x(8) <= 100
 x(9) <= 100
 x(10) <= 100
 x(11) <= 100
 x(12) <= 100
 x(13) <= 100
 x(14) <= 100
 x(15) <= 100
 x(16) <= 100
 x(17) <= 100
 x(18) <= 100
 x(19) <= 100
 x(20) <= 100
 x(21) <= 100
 x(22) <= 100
 x(23) <= 100
 x(24) <= 100
End
